TOUR_SECTION
1
91
63
86
145
96
69
118
76
150
51
87
200
133
6
49
97
77
129
23
108
58
17
115
139
30
15
111
110
22
94
174
165
60
143
161
92
27
11
120
2
95
164
88
126
3
160
121
48
167
67
93
122
32
181
128
61
103
89
187
56
156
197
135
21
154
105
116
29
157
54
190
13
193
163
169
149
100
175
109
24
31
172
162
10
98
90
141
153
196
146
138
35
168
62
142
28
37
12
137
178
189
194
39
101
179
59
199
119
68
83
114
44
34
130
73
79
123
43
50
134
140
46
84
188
192
166
20
195
72
53
9
66
40
5
186
131
144
127
18
36
125
182
74
26
99
198
171
41
7
78
47
71
52
191
173
185
183
85
16
55
124
8
112
106
113
155
136
57
176
102
151
147
64
4
104
80
81
82
180
107
70
38
42
132
158
159
117
170
33
19
148
75
25
65
14
152
177
45
184
-1
EOF